n = 49;
k = 3;
roles = [
{m, f},
{g, m},
{m, f},
{d, f},
{f, m},
{m, d},
{d, m},
{m, f},
{g, m},
{f, m},
{f, g},
{m, g},
{m, d},
{m, g},
{g, m},
{f, m},
{m, g},
{m, d},
{m, f},
{g, m},
{g, m},
{g, d},
{m, f},
{f, d},
{f, g},
{g, f},
{d, g},
{f, g},
{f, g},
{d, g},
{d, f},
{g, f},
{f, d},
{m, d},
{f, d},
{d, g},
{m, d},
{d, g},
{f, g},
{m, f},
{d, m},
{m, g},
{g, f},
{m, f},
{g, f},
{m, f},
{d, m},
{f, m},
{m, d}
];
num_pairs = 1;
player1 = [20];
player2 = [9];
